; benchmark generated from python API
(set-info :status unknown)
(declare-fun n () Int)
(declare-fun t_c (Int) Bool)
(declare-fun t_a (Int) Bool)
(declare-fun h_a (Int) Int)
(declare-fun h_c (Int) Int)
(assert
 (= n 20))
(assert
 (let (($x132103 (t_c 1)))
 (let (($x3538 (t_a 1)))
 (or $x3538 $x132103))))
(assert
 (let (($x37801 (t_c 2)))
 (let (($x132115 (t_a 2)))
 (or $x132115 $x37801))))
(assert
 (let (($x132139 (t_c 3)))
 (let (($x109572 (t_a 3)))
 (or $x109572 $x132139))))
(assert
 (let (($x132163 (t_c 4)))
 (let (($x132151 (t_a 4)))
 (or $x132151 $x132163))))
(assert
 (let (($x132097 (t_c 5)))
 (let (($x132085 (t_a 5)))
 (or $x132085 $x132097))))
(assert
 (let (($x132133 (t_c 6)))
 (let (($x132121 (t_a 6)))
 (or $x132121 $x132133))))
(assert
 (let (($x132169 (t_c 7)))
 (let (($x132157 (t_a 7)))
 (or $x132157 $x132169))))
(assert
 (let (($x132190 (t_c 8)))
 (let (($x132184 (t_a 8)))
 (or $x132184 $x132190))))
(assert
 (let (($x132208 (t_c 9)))
 (let (($x132202 (t_a 9)))
 (or $x132202 $x132208))))
(assert
 (let (($x139049 (t_c 10)))
 (let (($x132217 (t_a 10)))
 (or $x132217 $x139049))))
(assert
 (let (($x109940 (t_c 11)))
 (let (($x32539 (t_a 11)))
 (or $x32539 $x109940))))
(assert
 (let (($x17305 (t_c 12)))
 (let (($x77545 (t_a 12)))
 (or $x77545 $x17305))))
(assert
 (let (($x76738 (t_c 13)))
 (let (($x31223 (t_a 13)))
 (or $x31223 $x76738))))
(assert
 (let (($x43452 (t_c 14)))
 (let (($x49516 (t_a 14)))
 (or $x49516 $x43452))))
(assert
 (let (($x53591 (t_c 15)))
 (let (($x105948 (t_a 15)))
 (or $x105948 $x53591))))
(assert
 (let (($x13350 (t_c 16)))
 (let (($x18092 (t_a 16)))
 (or $x18092 $x13350))))
(assert
 (let (($x132023 (t_c 17)))
 (let (($x75337 (t_a 17)))
 (or $x75337 $x132023))))
(assert
 (let (($x59048 (t_c 18)))
 (let (($x21706 (t_a 18)))
 (or $x21706 $x59048))))
(assert
 (let (($x104881 (t_c 19)))
 (let (($x86744 (t_a 19)))
 (or $x86744 $x104881))))
(assert
 (let (($x46328 (t_c 20)))
 (let (($x78095 (t_a 20)))
 (or $x78095 $x46328))))
(assert
 (let ((?x132079 (h_a 1)))
 (= 0 ?x132079)))
(assert
 (let ((?x132079 (h_a 1)))
 (let ((?x132091 (h_a 2)))
 (let (($x84314 (= ?x132091 ?x132079)))
 (let (($x3538 (t_a 1)))
 (ite $x3538 (= ?x132091 (+ ?x132079 1)) $x84314))))))
(assert
 (let ((?x132091 (h_a 2)))
 (let ((?x15605 (h_a 3)))
 (let (($x114811 (= ?x15605 ?x132091)))
 (let (($x132115 (t_a 2)))
 (ite $x132115 (= ?x15605 (+ ?x132091 1)) $x114811))))))
(assert
 (let ((?x15605 (h_a 3)))
 (let ((?x84264 (h_a 4)))
 (let (($x84252 (= ?x84264 ?x15605)))
 (let (($x109572 (t_a 3)))
 (ite $x109572 (= ?x84264 (+ ?x15605 1)) $x84252))))))
(assert
 (let ((?x84264 (h_a 4)))
 (let ((?x42511 (h_a 5)))
 (let (($x84338 (= ?x42511 ?x84264)))
 (let (($x132151 (t_a 4)))
 (ite $x132151 (= ?x42511 (+ ?x84264 1)) $x84338))))))
(assert
 (let ((?x42511 (h_a 5)))
 (let ((?x39147 (h_a 6)))
 (let (($x25035 (= ?x39147 ?x42511)))
 (let (($x132085 (t_a 5)))
 (ite $x132085 (= ?x39147 (+ ?x42511 1)) $x25035))))))
(assert
 (let ((?x39147 (h_a 6)))
 (let ((?x105206 (h_a 7)))
 (let (($x75919 (= ?x105206 ?x39147)))
 (let (($x132121 (t_a 6)))
 (ite $x132121 (= ?x105206 (+ ?x39147 1)) $x75919))))))
(assert
 (let ((?x105206 (h_a 7)))
 (let ((?x132034 (h_a 8)))
 (let (($x77708 (= ?x132034 ?x105206)))
 (let (($x132157 (t_a 7)))
 (ite $x132157 (= ?x132034 (+ ?x105206 1)) $x77708))))))
(assert
 (let ((?x132034 (h_a 8)))
 (let ((?x104608 (h_a 9)))
 (let (($x102993 (= ?x104608 ?x132034)))
 (let (($x132184 (t_a 8)))
 (ite $x132184 (= ?x104608 (+ ?x132034 1)) $x102993))))))
(assert
 (let ((?x104608 (h_a 9)))
 (let ((?x66674 (h_a 10)))
 (let (($x81577 (= ?x66674 ?x104608)))
 (let (($x132202 (t_a 9)))
 (ite $x132202 (= ?x66674 (+ ?x104608 1)) $x81577))))))
(assert
 (let ((?x66674 (h_a 10)))
 (let ((?x80351 (h_a 11)))
 (let (($x80362 (= ?x80351 ?x66674)))
 (let (($x132217 (t_a 10)))
 (ite $x132217 (= ?x80351 (+ ?x66674 1)) $x80362))))))
(assert
 (let ((?x80351 (h_a 11)))
 (let ((?x98885 (h_a 12)))
 (let (($x102482 (= ?x98885 ?x80351)))
 (let (($x32539 (t_a 11)))
 (ite $x32539 (= ?x98885 (+ ?x80351 1)) $x102482))))))
(assert
 (let ((?x98885 (h_a 12)))
 (let ((?x100581 (h_a 13)))
 (let (($x101671 (= ?x100581 ?x98885)))
 (let (($x77545 (t_a 12)))
 (ite $x77545 (= ?x100581 (+ ?x98885 1)) $x101671))))))
(assert
 (let ((?x100581 (h_a 13)))
 (let ((?x99000 (h_a 14)))
 (let (($x81390 (= ?x99000 ?x100581)))
 (let (($x31223 (t_a 13)))
 (ite $x31223 (= ?x99000 (+ ?x100581 1)) $x81390))))))
(assert
 (let ((?x99000 (h_a 14)))
 (let ((?x131981 (h_a 15)))
 (let (($x132003 (= ?x131981 ?x99000)))
 (let (($x49516 (t_a 14)))
 (ite $x49516 (= ?x131981 (+ ?x99000 1)) $x132003))))))
(assert
 (let ((?x131981 (h_a 15)))
 (let ((?x131934 (h_a 16)))
 (let (($x131924 (= ?x131934 ?x131981)))
 (let (($x105948 (t_a 15)))
 (ite $x105948 (= ?x131934 (+ ?x131981 1)) $x131924))))))
(assert
 (let ((?x131934 (h_a 16)))
 (let ((?x131944 (h_a 17)))
 (let (($x18193 (= ?x131944 ?x131934)))
 (let (($x18092 (t_a 16)))
 (ite $x18092 (= ?x131944 (+ ?x131934 1)) $x18193))))))
(assert
 (let ((?x131944 (h_a 17)))
 (let ((?x92569 (h_a 18)))
 (let (($x72450 (= ?x92569 ?x131944)))
 (let (($x75337 (t_a 17)))
 (ite $x75337 (= ?x92569 (+ ?x131944 1)) $x72450))))))
(assert
 (let ((?x92569 (h_a 18)))
 (let ((?x132204 (h_a 19)))
 (let (($x132195 (= ?x132204 ?x92569)))
 (let (($x21706 (t_a 18)))
 (ite $x21706 (= ?x132204 (+ ?x92569 1)) $x132195))))))
(assert
 (let ((?x132204 (h_a 19)))
 (let ((?x132183 (h_a 20)))
 (let (($x132168 (= ?x132183 ?x132204)))
 (let (($x86744 (t_a 19)))
 (ite $x86744 (= ?x132183 (+ ?x132204 1)) $x132168))))))
(assert
 (let ((?x132183 (h_a 20)))
 (let ((?x132150 (h_a 21)))
 (let (($x132141 (= ?x132150 ?x132183)))
 (let (($x78095 (t_a 20)))
 (ite $x78095 (= ?x132150 (+ ?x132183 1)) $x132141))))))
(assert
 (let ((?x132123 (h_c 1)))
 (= 0 ?x132123)))
(assert
 (let ((?x132123 (h_c 1)))
 (let ((?x132117 (h_c 2)))
 (let (($x132105 (= ?x132117 ?x132123)))
 (let (($x132103 (t_c 1)))
 (ite $x132103 (= ?x132117 (+ ?x132123 1)) $x132105))))))
(assert
 (let ((?x132117 (h_c 2)))
 (let ((?x132087 (h_c 3)))
 (let (($x132078 (= ?x132087 ?x132117)))
 (let (($x37801 (t_c 2)))
 (ite $x37801 (= ?x132087 (+ ?x132117 1)) $x132078))))))
(assert
 (let ((?x132087 (h_c 3)))
 (let ((?x132060 (h_c 4)))
 (let (($x132051 (= ?x132060 ?x132087)))
 (let (($x132139 (t_c 3)))
 (ite $x132139 (= ?x132060 (+ ?x132087 1)) $x132051))))))
(assert
 (let ((?x132060 (h_c 4)))
 (let ((?x132044 (h_c 5)))
 (let (($x132053 (= ?x132044 ?x132060)))
 (let (($x132163 (t_c 4)))
 (ite $x132163 (= ?x132044 (+ ?x132060 1)) $x132053))))))
(assert
 (let ((?x132044 (h_c 5)))
 (let ((?x132071 (h_c 6)))
 (let (($x132080 (= ?x132071 ?x132044)))
 (let (($x132097 (t_c 5)))
 (ite $x132097 (= ?x132071 (+ ?x132044 1)) $x132080))))))
(assert
 (let ((?x132071 (h_c 6)))
 (let ((?x132092 (h_c 7)))
 (let (($x132107 (= ?x132092 ?x132071)))
 (let (($x132133 (t_c 6)))
 (ite $x132133 (= ?x132092 (+ ?x132071 1)) $x132107))))))
(assert
 (let ((?x132092 (h_c 7)))
 (let ((?x132125 (h_c 8)))
 (let (($x132134 (= ?x132125 ?x132092)))
 (let (($x132169 (t_c 7)))
 (ite $x132169 (= ?x132125 (+ ?x132092 1)) $x132134))))))
(assert
 (let ((?x132125 (h_c 8)))
 (let ((?x132152 (h_c 9)))
 (let (($x132161 (= ?x132152 ?x132125)))
 (let (($x132190 (t_c 8)))
 (ite $x132190 (= ?x132152 (+ ?x132125 1)) $x132161))))))
(assert
 (let ((?x132152 (h_c 9)))
 (let ((?x132179 (h_c 10)))
 (let (($x132188 (= ?x132179 ?x132152)))
 (let (($x132208 (t_c 9)))
 (ite $x132208 (= ?x132179 (+ ?x132152 1)) $x132188))))))
(assert
 (let ((?x132179 (h_c 10)))
 (let ((?x132206 (h_c 11)))
 (let (($x132215 (= ?x132206 ?x132179)))
 (let (($x139049 (t_c 10)))
 (ite $x139049 (= ?x132206 (+ ?x132179 1)) $x132215))))))
(assert
 (let ((?x132206 (h_c 11)))
 (let ((?x5377 (h_c 12)))
 (let (($x12754 (= ?x5377 ?x132206)))
 (let (($x109940 (t_c 11)))
 (ite $x109940 (= ?x5377 (+ ?x132206 1)) $x12754))))))
(assert
 (let ((?x5377 (h_c 12)))
 (let ((?x108837 (h_c 13)))
 (let (($x63758 (= ?x108837 ?x5377)))
 (let (($x17305 (t_c 12)))
 (ite $x17305 (= ?x108837 (+ ?x5377 1)) $x63758))))))
(assert
 (let ((?x108837 (h_c 13)))
 (let ((?x69784 (h_c 14)))
 (let (($x11987 (= ?x69784 ?x108837)))
 (let (($x76738 (t_c 13)))
 (ite $x76738 (= ?x69784 (+ ?x108837 1)) $x11987))))))
(assert
 (let ((?x69784 (h_c 14)))
 (let ((?x24917 (h_c 15)))
 (let (($x56467 (= ?x24917 ?x69784)))
 (let (($x43452 (t_c 14)))
 (ite $x43452 (= ?x24917 (+ ?x69784 1)) $x56467))))))
(assert
 (let ((?x24917 (h_c 15)))
 (let ((?x98470 (h_c 16)))
 (let (($x44074 (= ?x98470 ?x24917)))
 (let (($x53591 (t_c 15)))
 (ite $x53591 (= ?x98470 (+ ?x24917 1)) $x44074))))))
(assert
 (let ((?x98470 (h_c 16)))
 (let ((?x24768 (h_c 17)))
 (let (($x24744 (= ?x24768 ?x98470)))
 (let (($x13350 (t_c 16)))
 (ite $x13350 (= ?x24768 (+ ?x98470 1)) $x24744))))))
(assert
 (let ((?x24768 (h_c 17)))
 (let ((?x43000 (h_c 18)))
 (let (($x61298 (= ?x43000 ?x24768)))
 (let (($x132023 (t_c 17)))
 (ite $x132023 (= ?x43000 (+ ?x24768 1)) $x61298))))))
(assert
 (let ((?x43000 (h_c 18)))
 (let ((?x97240 (h_c 19)))
 (let (($x24632 (= ?x97240 ?x43000)))
 (let (($x59048 (t_c 18)))
 (ite $x59048 (= ?x97240 (+ ?x43000 1)) $x24632))))))
(assert
 (let ((?x97240 (h_c 19)))
 (let ((?x28743 (h_c 20)))
 (let (($x66515 (= ?x28743 ?x97240)))
 (let (($x104881 (t_c 19)))
 (ite $x104881 (= ?x28743 (+ ?x97240 1)) $x66515))))))
(assert
 (let ((?x28743 (h_c 20)))
 (let ((?x97284 (h_c 21)))
 (let (($x19908 (= ?x97284 ?x28743)))
 (let (($x46328 (t_c 20)))
 (ite $x46328 (= ?x97284 (+ ?x28743 1)) $x19908))))))
(assert
 (or (not (t_a 1)) (not (t_c 1))))
(assert
 (or (not (t_a 2)) (not (t_c 2))))
(assert
 (or (not (t_a 3)) (not (t_c 3))))
(assert
 (or (not (t_a 4)) (not (t_c 4))))
(assert
 (or (not (t_a 5)) (not (t_c 5))))
(assert
 (or (not (t_a 6)) (not (t_c 6))))
(assert
 (or (not (t_a 7)) (not (t_c 7))))
(assert
 (or (not (t_a 8)) (not (t_c 8))))
(assert
 (or (not (t_a 9)) (not (t_c 9))))
(assert
 (or (not (t_a 10)) (not (t_c 10))))
(assert
 (or (not (t_a 11)) (not (t_c 11))))
(assert
 (or (not (t_a 12)) (not (t_c 12))))
(assert
 (or (not (t_a 13)) (not (t_c 13))))
(assert
 (or (not (t_a 14)) (not (t_c 14))))
(assert
 (or (not (t_a 15)) (not (t_c 15))))
(assert
 (or (not (t_a 16)) (not (t_c 16))))
(assert
 (or (not (t_a 17)) (not (t_c 17))))
(assert
 (or (not (t_a 18)) (not (t_c 18))))
(assert
 (or (not (t_a 19)) (not (t_c 19))))
(assert
 (or (not (t_a 20)) (not (t_c 20))))
(check-sat)
